[runlim] version:		1.10
[runlim] time limit:		311040000 seconds
[runlim] real time limit:	600 seconds
[runlim] space limit:		14000 MB
[runlim] argv[0]:		python3
[runlim] argv[1]:		-u
[runlim] argv[2]:		mip.py
[runlim] argv[3]:		graph06
[runlim] start:			Tue Jan 20 13:49:59 2026
[runlim] main pid:		42166
Building MIP model...
[runlim] sample:		10.0 time, 10.7 real, 32.8 MB
[runlim] sample:		20.0 time, 20.7 real, 35.1 MB
[runlim] sample:		30.0 time, 30.7 real, 37.1 MB
[runlim] sample:		40.0 time, 40.7 real, 39.7 MB
[runlim] sample:		49.9 time, 50.7 real, 41.5 MB
[runlim] sample:		59.9 time, 60.7 real, 42.2 MB
[runlim] sample:		69.9 time, 70.7 real, 44.3 MB
[runlim] sample:		79.9 time, 80.7 real, 44.8 MB
[runlim] sample:		89.9 time, 90.7 real, 47.5 MB
[runlim] sample:		99.9 time, 100.7 real, 48.0 MB
[runlim] sample:		109.9 time, 110.7 real, 50.3 MB
[runlim] sample:		119.9 time, 120.7 real, 51.2 MB
[runlim] sample:		129.9 time, 130.7 real, 51.6 MB
[runlim] sample:		139.8 time, 140.7 real, 52.0 MB
[runlim] sample:		149.8 time, 150.7 real, 55.3 MB
[runlim] sample:		159.8 time, 160.7 real, 55.8 MB
[runlim] sample:		169.8 time, 170.7 real, 56.2 MB
[runlim] sample:		179.8 time, 180.7 real, 56.3 MB
[runlim] sample:		189.8 time, 190.7 real, 59.7 MB
[runlim] sample:		199.8 time, 200.7 real, 60.7 MB
[runlim] sample:		209.8 time, 210.7 real, 61.2 MB
[runlim] sample:		219.8 time, 220.7 real, 60.5 MB
[runlim] sample:		229.8 time, 230.7 real, 60.7 MB
[runlim] sample:		239.8 time, 240.7 real, 60.7 MB
[runlim] sample:		249.8 time, 250.7 real, 64.9 MB
[runlim] sample:		259.8 time, 260.7 real, 66.0 MB
[runlim] sample:		269.8 time, 270.7 real, 66.5 MB
[runlim] sample:		279.8 time, 280.7 real, 67.0 MB
[runlim] sample:		289.8 time, 290.7 real, 67.2 MB
[runlim] sample:		299.7 time, 300.7 real, 67.4 MB
[runlim] sample:		309.7 time, 310.7 real, 67.4 MB
[runlim] sample:		319.7 time, 320.7 real, 67.5 MB
[runlim] sample:		329.7 time, 330.7 real, 72.9 MB
[runlim] sample:		339.7 time, 340.7 real, 73.9 MB
[runlim] sample:		349.7 time, 350.7 real, 74.4 MB
[runlim] sample:		359.7 time, 360.7 real, 74.6 MB
[runlim] sample:		369.7 time, 370.7 real, 75.0 MB
[runlim] sample:		379.7 time, 380.7 real, 75.1 MB
Build time: 389.42s
Solving MIP (minimizing number of labels)...
Version identifier: 22.1.1.0 | 2022-11-28 | 9160aff4d
CPXPARAM_Read_DataCheck                          1
Legacy callback                                  i
[runlim] sample:		389.7 time, 390.7 real, 223.1 MB
Tried aggregator 2 times.
[runlim] sample:		416.1 time, 400.7 real, 418.5 MB
Infeasibility row 'c25':  0  = 1.
Presolve time = 12.25 sec. (23577.91 ticks)

Root node processing (before b&c):
  Real time             =   12.30 sec. (23630.06 ticks)
Parallel b&c, 12 threads:
  Real time             =    0.00 sec. (0.00 ticks)
  Sync time (average)   =    0.00 sec.
  Wait time (average)   =    0.00 sec.
                          ------------
Total (root+branch&cut) =   12.30 sec. (23630.06 ticks)
CPLEX Error  1217: No solution exists.
No solution found.
[runlim] end:			Tue Jan 20 13:56:41 2026
[runlim] status:		ok
[runlim] result:		0
[runlim] children:		0
[runlim] real:			402.47 seconds
[runlim] time:			417.86 seconds
[runlim] space:			419.4 MB
[runlim] samples:		4018
